NAME : amtsp.-101642.tour
COMMENT : Length = -101642
COMMENT : Found by LKH [Keld Helsgaun] Wed May 14 16:48:37 2025
TYPE : TOUR
DIMENSION : 15
TOUR_SECTION
1
2
5
4
3
6
7
8
9
10
11
12
13
14
15
-1
EOF
